DATASET = "thpack2";
INSTANCE = "061";

WIDTH = 233;
HEIGHT = 220;
LENGTH = 587;

NO_OF_SHAPES = 5;
size = [|
  109,68,64 |
  84,58,55 |
  96,83,24 |
  74,67,37 |
  107,73,70 |
|];

verticality = [|
  1,1,1 |
  1,1,1 |
  0,0,1 |
  0,1,1 |
  1,1,1 |
|];

box_count = [
  12,
  19,
  11,
  15,
  26,
];
